15
45
539
566
788
789
621
780
709
585
753
683
560
662
578
541
959
399	399
44	44
902	902
158	158
819	819
128	128
648	648
295	295
460	460
599	599
207	207
18	18
22	22
483	483
282	282
656	656
328	328
333	333
373	373
464	464
929	929
541	541
235	235
498	498
219	219
685	685
444	444
205	205
897	897
877	877
573	573
701	701
168	168
871	871
389	389
539	539
294	294
497	497
898	898
22	22
566	566
227	227
548	548
125	125
660	660
